Route #1: 37 29 8 5 10 44 47
Route #2: 27 51 35 33 7 43
Route #3: 9 16 13 46 34 32 38 48 2
Route #4: 4 45 12 50 17 49 15 19 26 22
Route #5: 23 14 39 21 11 28 24 31 3
Route #6: 40 42 20 30 18 1 41
Route #7: 25 6 36
Cost 762